p tw 29 40
1 6
2 3
3 8
4 5
4 9
5 6
5 10
6 7
6 11
7 12
8 13
9 10
9 14
10 11
10 15
11 12
11 16
12 17
13 18
14 15
14 19
15 16
15 20
16 17
16 21
17 22
18 24
19 20
19 25
20 21
20 26
21 22
22 23
22 27
23 24
23 28
24 29
25 26
27 28
28 29
